NAME : mtspf
TYPE : AGTSP
DIMENSION : 45
GTSP_SETS : 15
EDGE_WEIGHT_TYPE : EXPLICIT
EDGE_WEIGHT_FORMAT : FULL_MATRIX
EDGE_WEIGHT_SECTION
0 0 0 0 0 43 44 43 42 63 64 65 64 89 88 87 88 34 35 36 35 57 58 59 58 43 44 43 42 33 32 33 34 100 101 102 101 5 6 5 4 72 73 74 73 
0 0 0 0 0 85 84 83 84 101 102 103 102 17 18 19 18 72 73 74 73 53 54 55 54 93 92 91 92 75 74 73 74 38 39 40 39 105 104 103 104 64 65 66 65 
0 0 0 0 0 34 35 36 35 54 55 56 55 40 39 38 39 25 26 27 26 6 7 8 7 40 39 38 39 22 21 20 21 51 52 53 52 52 51 50 51 23 22 23 24 
0 0 0 0 0 59 60 59 58 77 78 79 78 57 56 55 56 46 47 46 45 25 24 23 24 67 68 67 66 49 50 49 48 68 69 70 69 81 80 79 80 10 9 8 9 
0 0 0 0 0 74 73 72 73 90 91 92 91 20 21 20 19 61 62 63 62 42 43 44 43 82 81 80 81 64 63 62 63 9 10 11 10 94 93 92 93 53 54 55 54 
0 0 0 0 0 0 0 0 0 26 27 28 27 68 67 66 67 15 16 17 16 36 37 38 37 12 11 10 11 26 25 24 25 79 80 81 80 44 43 42 43 51 52 53 52 
0 0 0 0 0 0 0 0 0 25 26 27 26 69 68 67 68 14 15 16 15 35 36 37 36 11 12 11 10 25 24 23 24 80 81 82 81 43 42 41 42 50 51 52 51 
0 0 0 0 0 0 0 0 0 26 27 28 27 70 69 68 69 15 16 17 16 36 37 38 37 10 11 10 9 24 23 24 25 81 82 83 82 44 43 42 43 51 52 53 52 
0 0 0 0 0 0 0 0 0 27 28 29 28 69 68 67 68 16 17 18 17 37 38 39 38 11 10 9 10 25 24 25 26 80 81 82 81 45 44 43 44 52 53 54 53 
0 0 0 0 0 28 29 28 27 0 0 0 0 88 87 86 87 35 36 37 36 56 57 58 57 36 37 36 35 46 45 46 47 99 100 101 100 66 65 64 65 71 72 73 72 
0 0 0 0 0 27 28 27 26 0 0 0 0 87 86 85 86 34 35 36 35 55 56 57 56 35 36 35 34 45 44 45 46 98 99 100 99 65 64 63 64 70 71 72 71 
0 0 0 0 0 26 27 26 25 0 0 0 0 86 85 84 85 33 34 35 34 54 55 56 55 34 35 34 33 44 43 44 45 97 98 99 98 64 63 62 63 69 70 71 70 
0 0 0 0 0 27 28 27 26 0 0 0 0 87 86 85 86 34 35 36 35 55 56 57 56 35 36 35 34 45 44 45 46 98 99 100 99 65 64 63 64 70 71 72 71 
0 0 0 0 0 68 67 66 67 84 85 86 85 0 0 0 0 55 56 57 56 36 37 38 37 76 75 74 75 58 57 56 57 27 28 29 28 88 87 86 87 47 48 49 48 
0 0 0 0 0 69 68 67 68 85 86 87 86 0 0 0 0 56 57 58 57 37 38 39 38 77 76 75 76 59 58 57 58 26 27 28 27 89 88 87 88 48 49 50 49 
0 0 0 0 0 70 69 68 69 86 87 88 87 0 0 0 0 57 58 59 58 38 39 40 39 78 77 76 77 60 59 58 59 27 28 29 28 90 89 88 89 49 50 51 50 
0 0 0 0 0 69 68 67 68 85 86 87 86 0 0 0 0 56 57 58 57 37 38 39 38 77 76 75 76 59 58 57 58 28 29 30 29 89 88 87 88 48 49 50 49 
0 0 0 0 0 17 18 17 16 35 36 37 36 59 58 57 58 0 0 0 0 23 24 25 24 25 26 25 24 17 16 15 16 70 71 72 71 37 36 35 36 38 39 40 39 
0 0 0 0 0 16 17 16 15 34 35 36 35 58 57 56 57 0 0 0 0 22 23 24 23 24 25 24 23 16 15 14 15 69 70 71 70 36 35 34 35 37 38 39 38 
0 0 0 0 0 15 16 15 14 33 34 35 34 57 56 55 56 0 0 0 0 23 24 25 24 23 24 23 22 15 14 15 16 68 69 70 69 35 34 33 34 38 39 40 39 
0 0 0 0 0 16 17 16 15 34 35 36 35 58 57 56 57 0 0 0 0 24 25 26 25 24 25 24 23 16 15 16 17 69 70 71 70 36 35 34 35 39 40 41 40 
0 0 0 0 0 38 39 38 37 56 57 58 57 40 39 38 39 25 26 25 24 0 0 0 0 46 47 46 45 28 29 28 27 51 52 53 52 60 59 58 59 17 16 17 18 
0 0 0 0 0 37 38 37 36 55 56 57 56 39 38 37 38 24 25 24 23 0 0 0 0 45 46 45 44 27 28 27 26 50 51 52 51 59 58 57 58 16 17 18 17 
0 0 0 0 0 36 37 36 35 54 55 56 55 38 37 36 37 23 24 23 22 0 0 0 0 44 45 44 43 26 27 26 25 49 50 51 50 58 57 56 57 17 18 19 18 
0 0 0 0 0 37 38 37 36 55 56 57 56 39 38 37 38 24 25 24 23 0 0 0 0 45 46 45 44 27 28 27 26 50 51 52 51 59 58 57 58 18 17 18 19 
0 0 0 0 0 10 9 10 11 34 35 36 35 76 75 74 75 23 24 25 24 44 45 46 45 0 0 0 0 26 25 24 25 87 88 89 88 44 43 42 43 59 60 61 60 
0 0 0 0 0 9 10 11 10 33 34 35 34 77 76 75 76 22 23 24 23 43 44 45 44 0 0 0 0 25 24 23 24 88 89 90 89 43 42 41 42 58 59 60 59 
0 0 0 0 0 10 11 12 11 34 35 36 35 78 77 76 77 23 24 25 24 44 45 46 45 0 0 0 0 24 23 24 25 89 90 91 90 44 43 42 43 59 60 61 60 
0 0 0 0 0 11 10 11 12 35 36 37 36 77 76 75 76 24 25 26 25 45 46 47 46 0 0 0 0 25 24 25 26 88 89 90 89 45 44 43 44 60 61 62 61 
0 0 0 0 0 24 25 24 23 44 45 46 45 58 57 56 57 15 16 15 14 26 27 28 27 24 25 24 23 0 0 0 0 69 70 71 70 34 33 32 33 41 42 43 42 
0 0 0 0 0 25 26 25 24 45 46 47 46 59 58 57 58 16 17 16 15 25 26 27 26 25 26 25 24 0 0 0 0 70 71 72 71 35 34 33 34 40 41 42 41 
0 0 0 0 0 24 25 26 25 44 45 46 45 60 59 58 59 15 16 17 16 26 27 28 27 24 25 26 25 0 0 0 0 71 72 73 72 34 33 32 33 41 42 43 42 
0 0 0 0 0 23 24 25 24 43 44 45 44 59 58 57 58 14 15 16 15 27 28 29 28 23 24 25 24 0 0 0 0 70 71 72 71 33 32 31 32 42 43 44 43 
0 0 0 0 0 83 82 81 82 99 100 101 100 29 30 29 28 70 71 72 71 51 52 53 52 91 90 89 90 73 72 71 72 0 0 0 0 103 102 101 102 62 63 64 63 
0 0 0 0 0 82 81 80 81 98 99 100 99 28 29 28 27 69 70 71 70 50 51 52 51 90 89 88 89 72 71 70 71 0 0 0 0 102 101 100 101 61 62 63 62 
0 0 0 0 0 81 80 79 80 97 98 99 98 27 28 27 26 68 69 70 69 49 50 51 50 89 88 87 88 71 70 69 70 0 0 0 0 101 100 99 100 60 61 62 61 
0 0 0 0 0 82 81 80 81 98 99 100 99 28 29 28 27 69 70 71 70 50 51 52 51 90 89 88 89 72 71 70 71 0 0 0 0 102 101 100 101 61 62 63 62 
0 0 0 0 0 42 43 42 41 62 63 64 63 88 87 86 87 33 34 35 34 56 57 58 57 42 43 42 41 32 31 32 33 99 100 101 100 0 0 0 0 71 72 73 72 
0 0 0 0 0 43 44 43 42 63 64 65 64 89 88 87 88 34 35 36 35 57 58 59 58 43 44 43 42 33 32 33 34 100 101 102 101 0 0 0 0 72 73 74 73 
0 0 0 0 0 44 45 44 43 64 65 66 65 90 89 88 89 35 36 37 36 58 59 60 59 44 45 44 43 34 33 34 35 101 102 103 102 0 0 0 0 73 74 75 74 
0 0 0 0 0 43 44 43 42 63 64 65 64 89 88 87 88 34 35 36 35 57 58 59 58 43 44 43 42 33 32 33 34 100 101 102 101 0 0 0 0 72 73 74 73 
0 0 0 0 0 53 54 53 52 71 72 73 72 51 50 49 50 40 41 40 39 19 18 17 18 61 62 61 60 43 44 43 42 62 63 64 63 75 74 73 74 0 0 0 0 
0 0 0 0 0 52 53 52 51 70 71 72 71 50 49 48 49 39 40 39 38 18 19 18 17 60 61 60 59 42 43 42 41 61 62 63 62 74 73 72 73 0 0 0 0 
0 0 0 0 0 51 52 51 50 69 70 71 70 49 48 47 48 38 39 38 37 17 18 17 16 59 60 59 58 41 42 41 40 60 61 62 61 73 72 71 72 0 0 0 0 
0 0 0 0 0 52 53 52 51 70 71 72 71 50 49 48 49 39 40 39 38 18 17 16 17 60 61 60 59 42 43 42 41 61 62 63 62 74 73 72 73 0 0 0 0 
GTSP_SET_SECTION
1 1 -1
2 2 -1
3 3 -1
4 4 -1
5 5 -1
6 6 7 8 9 -1
7 10 11 12 13 -1
8 14 15 16 17 -1
9 18 19 20 21 -1
10 22 23 24 25 -1
11 26 27 28 29 -1
12 30 31 32 33 -1
13 34 35 36 37 -1
14 38 39 40 41 -1
15 42 43 44 45 -1
